c FILE: 2-Insertions_5.col
c SOURCE: M. Caramia (caramia@iac.rm.cnr.it) and P. Dell'Olmo (paolo.dellolmo@uniroma1.it)
c DESCRIPTION: 2-Insertions graph of order 5%
p edge 597 3936
e 1 2
e 1 4
e 1 11
e 1 13
e 1 39
e 1 41
e 1 48
e 1 50
e 1 151
e 1 153
e 1 160
e 1 162
e 1 188
e 1 190
e 1 197
e 1 199
e 2 3
e 2 10
e 2 12
e 2 38
e 2 40
e 2 47
e 2 49
e 2 150
e 2 152
e 2 159
e 2 161
e 2 187
e 2 189
e 2 196
e 2 198
e 3 6
e 3 11
e 3 15
e 3 39
e 3 43
e 3 48
e 3 52
e 3 151
e 3 155
e 3 160
e 3 164
e 3 188
e 3 192
e 3 197
e 3 201
e 4 5
e 4 10
e 4 14
e 4 38
e 4 42
e 4 47
e 4 51
e 4 150
e 4 154
e 4 159
e 4 163
e 4 187
e 4 191
e 4 196
e 4 200
e 5 8
e 5 13
e 5 17
e 5 41
e 5 45
e 5 50
e 5 54
e 5 153
e 5 157
e 5 162
e 5 166
e 5 190
e 5 194
e 5 199
e 5 203
e 6 7
e 6 12
e 6 16
e 6 40
e 6 44
e 6 49
e 6 53
e 6 152
e 6 156
e 6 161
e 6 165
e 6 189
e 6 193
e 6 198
e 6 202
e 7 9
e 7 15
e 7 18
e 7 43
e 7 46
e 7 52
e 7 55
e 7 155
e 7 158
e 7 164
e 7 167
e 7 192
e 7 195
e 7 201
e 7 204
e 8 9
e 8 14
e 8 18
e 8 42
e 8 46
e 8 51
e 8 55
e 8 154
e 8 158
e 8 163
e 8 167
e 8 191
e 8 195
e 8 200
e 8 204
e 9 16
e 9 17
e 9 44
e 9 45
e 9 53
e 9 54
e 9 156
e 9 157
e 9 165
e 9 166
e 9 193
e 9 194
e 9 202
e 9 203
e 10 20
e 10 22
e 10 39
e 10 41
e 10 57
e 10 59
e 10 151
e 10 153
e 10 169
e 10 171
e 10 188
e 10 190
e 10 206
e 10 208
e 11 19
e 11 21
e 11 38
e 11 40
e 11 56
e 11 58
e 11 150
e 11 152
e 11 168
e 11 170
e 11 187
e 11 189
e 11 205
e 11 207
e 12 20
e 12 24
e 12 39
e 12 43
e 12 57
e 12 61
e 12 151
e 12 155
e 12 169
e 12 173
e 12 188
e 12 192
e 12 206
e 12 210
e 13 19
e 13 23
e 13 38
e 13 42
e 13 56
e 13 60
e 13 150
e 13 154
e 13 168
e 13 172
e 13 187
e 13 191
e 13 205
e 13 209
e 14 22
e 14 26
e 14 41
e 14 45
e 14 59
e 14 63
e 14 153
e 14 157
e 14 171
e 14 175
e 14 190
e 14 194
e 14 208
e 14 212
e 15 21
e 15 25
e 15 40
e 15 44
e 15 58
e 15 62
e 15 152
e 15 156
e 15 170
e 15 174
e 15 189
e 15 193
e 15 207
e 15 211
e 16 24
e 16 27
e 16 43
e 16 46
e 16 61
e 16 64
e 16 155
e 16 158
e 16 173
e 16 176
e 16 192
e 16 195
e 16 210
e 16 213
e 17 23
e 17 27
e 17 42
e 17 46
e 17 60
e 17 64
e 17 154
e 17 158
e 17 172
e 17 176
e 17 191
e 17 195
e 17 209
e 17 213
e 18 25
e 18 26
e 18 44
e 18 45
e 18 62
e 18 63
e 18 156
e 18 157
e 18 174
e 18 175
e 18 193
e 18 194
e 18 211
e 18 212
e 19 29
e 19 31
e 19 48
e 19 50
e 19 66
e 19 68
e 19 160
e 19 162
e 19 178
e 19 180
e 19 197
e 19 199
e 19 215
e 19 217
e 20 28
e 20 30
e 20 47
e 20 49
e 20 65
e 20 67
e 20 159
e 20 161
e 20 177
e 20 179
e 20 196
e 20 198
e 20 214
e 20 216
e 21 29
e 21 33
e 21 48
e 21 52
e 21 66
e 21 70
e 21 160
e 21 164
e 21 178
e 21 182
e 21 197
e 21 201
e 21 215
e 21 219
e 22 28
e 22 32
e 22 47
e 22 51
e 22 65
e 22 69
e 22 159
e 22 163
e 22 177
e 22 181
e 22 196
e 22 200
e 22 214
e 22 218
e 23 31
e 23 35
e 23 50
e 23 54
e 23 68
e 23 72
e 23 162
e 23 166
e 23 180
e 23 184
e 23 199
e 23 203
e 23 217
e 23 221
e 24 30
e 24 34
e 24 49
e 24 53
e 24 67
e 24 71
e 24 161
e 24 165
e 24 179
e 24 183
e 24 198
e 24 202
e 24 216
e 24 220
e 25 33
e 25 36
e 25 52
e 25 55
e 25 70
e 25 73
e 25 164
e 25 167
e 25 182
e 25 185
e 25 201
e 25 204
e 25 219
e 25 222
e 26 32
e 26 36
e 26 51
e 26 55
e 26 69
e 26 73
e 26 163
e 26 167
e 26 181
e 26 185
e 26 200
e 26 204
e 26 218
e 26 222
e 27 34
e 27 35
e 27 53
e 27 54
e 27 71
e 27 72
e 27 165
e 27 166
e 27 183
e 27 184
e 27 202
e 27 203
e 27 220
e 27 221
e 28 37
e 28 57
e 28 59
e 28 74
e 28 169
e 28 171
e 28 186
e 28 206
e 28 208
e 28 223
e 29 37
e 29 56
e 29 58
e 29 74
e 29 168
e 29 170
e 29 186
e 29 205
e 29 207
e 29 223
e 30 37
e 30 57
e 30 61
e 30 74
e 30 169
e 30 173
e 30 186
e 30 206
e 30 210
e 30 223
e 31 37
e 31 56
e 31 60
e 31 74
e 31 168
e 31 172
e 31 186
e 31 205
e 31 209
e 31 223
e 32 37
e 32 59
e 32 63
e 32 74
e 32 171
e 32 175
e 32 186
e 32 208
e 32 212
e 32 223
e 33 37
e 33 58
e 33 62
e 33 74
e 33 170
e 33 174
e 33 186
e 33 207
e 33 211
e 33 223
e 34 37
e 34 61
e 34 64
e 34 74
e 34 173
e 34 176
e 34 186
e 34 210
e 34 213
e 34 223
e 35 37
e 35 60
e 35 64
e 35 74
e 35 172
e 35 176
e 35 186
e 35 209
e 35 213
e 35 223
e 36 37
e 36 62
e 36 63
e 36 74
e 36 174
e 36 175
e 36 186
e 36 211
e 36 212
e 36 223
e 37 65
e 37 66
e 37 67
e 37 68
e 37 69
e 37 70
e 37 71
e 37 72
e 37 73
e 37 177
e 37 178
e 37 179
e 37 180
e 37 181
e 37 182
e 37 183
e 37 184
e 37 185
e 37 214
e 37 215
e 37 216
e 37 217
e 37 218
e 37 219
e 37 220
e 37 221
e 37 222
e 38 76
e 38 78
e 38 85
e 38 87
e 38 151
e 38 153
e 38 160
e 38 162
e 38 225
e 38 227
e 38 234
e 38 236
e 39 75
e 39 77
e 39 84
e 39 86
e 39 150
e 39 152
e 39 159
e 39 161
e 39 224
e 39 226
e 39 233
e 39 235
e 40 76
e 40 80
e 40 85
e 40 89
e 40 151
e 40 155
e 40 160
e 40 164
e 40 225
e 40 229
e 40 234
e 40 238
e 41 75
e 41 79
e 41 84
e 41 88
e 41 150
e 41 154
e 41 159
e 41 163
e 41 224
e 41 228
e 41 233
e 41 237
e 42 78
e 42 82
e 42 87
e 42 91
e 42 153
e 42 157
e 42 162
e 42 166
e 42 227
e 42 231
e 42 236
e 42 240
e 43 77
e 43 81
e 43 86
e 43 90
e 43 152
e 43 156
e 43 161
e 43 165
e 43 226
e 43 230
e 43 235
e 43 239
e 44 80
e 44 83
e 44 89
e 44 92
e 44 155
e 44 158
e 44 164
e 44 167
e 44 229
e 44 232
e 44 238
e 44 241
e 45 79
e 45 83
e 45 88
e 45 92
e 45 154
e 45 158
e 45 163
e 45 167
e 45 228
e 45 232
e 45 237
e 45 241
e 46 81
e 46 82
e 46 90
e 46 91
e 46 156
e 46 157
e 46 165
e 46 166
e 46 230
e 46 231
e 46 239
e 46 240
e 47 76
e 47 78
e 47 94
e 47 96
e 47 151
e 47 153
e 47 169
e 47 171
e 47 225
e 47 227
e 47 243
e 47 245
e 48 75
e 48 77
e 48 93
e 48 95
e 48 150
e 48 152
e 48 168
e 48 170
e 48 224
e 48 226
e 48 242
e 48 244
e 49 76
e 49 80
e 49 94
e 49 98
e 49 151
e 49 155
e 49 169
e 49 173
e 49 225
e 49 229
e 49 243
e 49 247
e 50 75
e 50 79
e 50 93
e 50 97
e 50 150
e 50 154
e 50 168
e 50 172
e 50 224
e 50 228
e 50 242
e 50 246
e 51 78
e 51 82
e 51 96
e 51 100
e 51 153
e 51 157
e 51 171
e 51 175
e 51 227
e 51 231
e 51 245
e 51 249
e 52 77
e 52 81
e 52 95
e 52 99
e 52 152
e 52 156
e 52 170
e 52 174
e 52 226
e 52 230
e 52 244
e 52 248
e 53 80
e 53 83
e 53 98
e 53 101
e 53 155
e 53 158
e 53 173
e 53 176
e 53 229
e 53 232
e 53 247
e 53 250
e 54 79
e 54 83
e 54 97
e 54 101
e 54 154
e 54 158
e 54 172
e 54 176
e 54 228
e 54 232
e 54 246
e 54 250
e 55 81
e 55 82
e 55 99
e 55 100
e 55 156
e 55 157
e 55 174
e 55 175
e 55 230
e 55 231
e 55 248
e 55 249
e 56 85
e 56 87
e 56 103
e 56 105
e 56 160
e 56 162
e 56 178
e 56 180
e 56 234
e 56 236
e 56 252
e 56 254
e 57 84
e 57 86
e 57 102
e 57 104
e 57 159
e 57 161
e 57 177
e 57 179
e 57 233
e 57 235
e 57 251
e 57 253
e 58 85
e 58 89
e 58 103
e 58 107
e 58 160
e 58 164
e 58 178
e 58 182
e 58 234
e 58 238
e 58 252
e 58 256
e 59 84
e 59 88
e 59 102
e 59 106
e 59 159
e 59 163
e 59 177
e 59 181
e 59 233
e 59 237
e 59 251
e 59 255
e 60 87
e 60 91
e 60 105
e 60 109
e 60 162
e 60 166
e 60 180
e 60 184
e 60 236
e 60 240
e 60 254
e 60 258
e 61 86
e 61 90
e 61 104
e 61 108
e 61 161
e 61 165
e 61 179
e 61 183
e 61 235
e 61 239
e 61 253
e 61 257
e 62 89
e 62 92
e 62 107
e 62 110
e 62 164
e 62 167
e 62 182
e 62 185
e 62 238
e 62 241
e 62 256
e 62 259
e 63 88
e 63 92
e 63 106
e 63 110
e 63 163
e 63 167
e 63 181
e 63 185
e 63 237
e 63 241
e 63 255
e 63 259
e 64 90
e 64 91
e 64 108
e 64 109
e 64 165
e 64 166
e 64 183
e 64 184
e 64 239
e 64 240
e 64 257
e 64 258
e 65 94
e 65 96
e 65 111
e 65 169
e 65 171
e 65 186
e 65 243
e 65 245
e 65 260
e 66 93
e 66 95
e 66 111
e 66 168
e 66 170
e 66 186
e 66 242
e 66 244
e 66 260
e 67 94
e 67 98
e 67 111
e 67 169
e 67 173
e 67 186
e 67 243
e 67 247
e 67 260
e 68 93
e 68 97
e 68 111
e 68 168
e 68 172
e 68 186
e 68 242
e 68 246
e 68 260
e 69 96
e 69 100
e 69 111
e 69 171
e 69 175
e 69 186
e 69 245
e 69 249
e 69 260
e 70 95
e 70 99
e 70 111
e 70 170
e 70 174
e 70 186
e 70 244
e 70 248
e 70 260
e 71 98
e 71 101
e 71 111
e 71 173
e 71 176
e 71 186
e 71 247
e 71 250
e 71 260
e 72 97
e 72 101
e 72 111
e 72 172
e 72 176
e 72 186
e 72 246
e 72 250
e 72 260
e 73 99
e 73 100
e 73 111
e 73 174
e 73 175
e 73 186
e 73 248
e 73 249
e 73 260
e 74 102
e 74 103
e 74 104
e 74 105
e 74 106
e 74 107
e 74 108
e 74 109
e 74 110
e 74 177
e 74 178
e 74 179
e 74 180
e 74 181
e 74 182
e 74 183
e 74 184
e 74 185
e 74 251
e 74 252
e 74 253
e 74 254
e 74 255
e 74 256
e 74 257
e 74 258
e 74 259
e 75 113
e 75 115
e 75 122
e 75 124
e 75 188
e 75 190
e 75 197
e 75 199
e 75 262
e 75 264
e 75 271
e 75 273
e 76 112
e 76 114
e 76 121
e 76 123
e 76 187
e 76 189
e 76 196
e 76 198
e 76 261
e 76 263
e 76 270
e 76 272
e 77 113
e 77 117
e 77 122
e 77 126
e 77 188
e 77 192
e 77 197
e 77 201
e 77 262
e 77 266
e 77 271
e 77 275
e 78 112
e 78 116
e 78 121
e 78 125
e 78 187
e 78 191
e 78 196
e 78 200
e 78 261
e 78 265
e 78 270
e 78 274
e 79 115
e 79 119
e 79 124
e 79 128
e 79 190
e 79 194
e 79 199
e 79 203
e 79 264
e 79 268
e 79 273
e 79 277
e 80 114
e 80 118
e 80 123
e 80 127
e 80 189
e 80 193
e 80 198
e 80 202
e 80 263
e 80 267
e 80 272
e 80 276
e 81 117
e 81 120
e 81 126
e 81 129
e 81 192
e 81 195
e 81 201
e 81 204
e 81 266
e 81 269
e 81 275
e 81 278
e 82 116
e 82 120
e 82 125
e 82 129
e 82 191
e 82 195
e 82 200
e 82 204
e 82 265
e 82 269
e 82 274
e 82 278
e 83 118
e 83 119
e 83 127
e 83 128
e 83 193
e 83 194
e 83 202
e 83 203
e 83 267
e 83 268
e 83 276
e 83 277
e 84 113
e 84 115
e 84 131
e 84 133
e 84 188
e 84 190
e 84 206
e 84 208
e 84 262
e 84 264
e 84 280
e 84 282
e 85 112
e 85 114
e 85 130
e 85 132
e 85 187
e 85 189
e 85 205
e 85 207
e 85 261
e 85 263
e 85 279
e 85 281
e 86 113
e 86 117
e 86 131
e 86 135
e 86 188
e 86 192
e 86 206
e 86 210
e 86 262
e 86 266
e 86 280
e 86 284
e 87 112
e 87 116
e 87 130
e 87 134
e 87 187
e 87 191
e 87 205
e 87 209
e 87 261
e 87 265
e 87 279
e 87 283
e 88 115
e 88 119
e 88 133
e 88 137
e 88 190
e 88 194
e 88 208
e 88 212
e 88 264
e 88 268
e 88 282
e 88 286
e 89 114
e 89 118
e 89 132
e 89 136
e 89 189
e 89 193
e 89 207
e 89 211
e 89 263
e 89 267
e 89 281
e 89 285
e 90 117
e 90 120
e 90 135
e 90 138
e 90 192
e 90 195
e 90 210
e 90 213
e 90 266
e 90 269
e 90 284
e 90 287
e 91 116
e 91 120
e 91 134
e 91 138
e 91 191
e 91 195
e 91 209
e 91 213
e 91 265
e 91 269
e 91 283
e 91 287
e 92 118
e 92 119
e 92 136
e 92 137
e 92 193
e 92 194
e 92 211
e 92 212
e 92 267
e 92 268
e 92 285
e 92 286
e 93 122
e 93 124
e 93 140
e 93 142
e 93 197
e 93 199
e 93 215
e 93 217
e 93 271
e 93 273
e 93 289
e 93 291
e 94 121
e 94 123
e 94 139
e 94 141
e 94 196
e 94 198
e 94 214
e 94 216
e 94 270
e 94 272
e 94 288
e 94 290
e 95 122
e 95 126
e 95 140
e 95 144
e 95 197
e 95 201
e 95 215
e 95 219
e 95 271
e 95 275
e 95 289
e 95 293
e 96 121
e 96 125
e 96 139
e 96 143
e 96 196
e 96 200
e 96 214
e 96 218
e 96 270
e 96 274
e 96 288
e 96 292
e 97 124
e 97 128
e 97 142
e 97 146
e 97 199
e 97 203
e 97 217
e 97 221
e 97 273
e 97 277
e 97 291
e 97 295
e 98 123
e 98 127
e 98 141
e 98 145
e 98 198
e 98 202
e 98 216
e 98 220
e 98 272
e 98 276
e 98 290
e 98 294
e 99 126
e 99 129
e 99 144
e 99 147
e 99 201
e 99 204
e 99 219
e 99 222
e 99 275
e 99 278
e 99 293
e 99 296
e 100 125
e 100 129
e 100 143
e 100 147
e 100 200
e 100 204
e 100 218
e 100 222
e 100 274
e 100 278
e 100 292
e 100 296
e 101 127
e 101 128
e 101 145
e 101 146
e 101 202
e 101 203
e 101 220
e 101 221
e 101 276
e 101 277
e 101 294
e 101 295
e 102 131
e 102 133
e 102 148
e 102 206
e 102 208
e 102 223
e 102 280
e 102 282
e 102 297
e 103 130
e 103 132
e 103 148
e 103 205
e 103 207
e 103 223
e 103 279
e 103 281
e 103 297
e 104 131
e 104 135
e 104 148
e 104 206
e 104 210
e 104 223
e 104 280
e 104 284
e 104 297
e 105 130
e 105 134
e 105 148
e 105 205
e 105 209
e 105 223
e 105 279
e 105 283
e 105 297
e 106 133
e 106 137
e 106 148
e 106 208
e 106 212
e 106 223
e 106 282
e 106 286
e 106 297
e 107 132
e 107 136
e 107 148
e 107 207
e 107 211
e 107 223
e 107 281
e 107 285
e 107 297
e 108 135
e 108 138
e 108 148
e 108 210
e 108 213
e 108 223
e 108 284
e 108 287
e 108 297
e 109 134
e 109 138
e 109 148
e 109 209
e 109 213
e 109 223
e 109 283
e 109 287
e 109 297
e 110 136
e 110 137
e 110 148
e 110 211
e 110 212
e 110 223
e 110 285
e 110 286
e 110 297
e 111 139
e 111 140
e 111 141
e 111 142
e 111 143
e 111 144
e 111 145
e 111 146
e 111 147
e 111 214
e 111 215
e 111 216
e 111 217
e 111 218
e 111 219
e 111 220
e 111 221
e 111 222
e 111 288
e 111 289
e 111 290
e 111 291
e 111 292
e 111 293
e 111 294
e 111 295
e 111 296
e 112 149
e 112 225
e 112 227
e 112 234
e 112 236
e 112 298
e 113 149
e 113 224
e 113 226
e 113 233
e 113 235
e 113 298
e 114 149
e 114 225
e 114 229
e 114 234
e 114 238
e 114 298
e 115 149
e 115 224
e 115 228
e 115 233
e 115 237
e 115 298
e 116 149
e 116 227
e 116 231
e 116 236
e 116 240
e 116 298
e 117 149
e 117 226
e 117 230
e 117 235
e 117 239
e 117 298
e 118 149
e 118 229
e 118 232
e 118 238
e 118 241
e 118 298
e 119 149
e 119 228
e 119 232
e 119 237
e 119 241
e 119 298
e 120 149
e 120 230
e 120 231
e 120 239
e 120 240
e 120 298
e 121 149
e 121 225
e 121 227
e 121 243
e 121 245
e 121 298
e 122 149
e 122 224
e 122 226
e 122 242
e 122 244
e 122 298
e 123 149
e 123 225
e 123 229
e 123 243
e 123 247
e 123 298
e 124 149
e 124 224
e 124 228
e 124 242
e 124 246
e 124 298
e 125 149
e 125 227
e 125 231
e 125 245
e 125 249
e 125 298
e 126 149
e 126 226
e 126 230
e 126 244
e 126 248
e 126 298
e 127 149
e 127 229
e 127 232
e 127 247
e 127 250
e 127 298
e 128 149
e 128 228
e 128 232
e 128 246
e 128 250
e 128 298
e 129 149
e 129 230
e 129 231
e 129 248
e 129 249
e 129 298
e 130 149
e 130 234
e 130 236
e 130 252
e 130 254
e 130 298
e 131 149
e 131 233
e 131 235
e 131 251
e 131 253
e 131 298
e 132 149
e 132 234
e 132 238
e 132 252
e 132 256
e 132 298
e 133 149
e 133 233
e 133 237
e 133 251
e 133 255
e 133 298
e 134 149
e 134 236
e 134 240
e 134 254
e 134 258
e 134 298
e 135 149
e 135 235
e 135 239
e 135 253
e 135 257
e 135 298
e 136 149
e 136 238
e 136 241
e 136 256
e 136 259
e 136 298
e 137 149
e 137 237
e 137 241
e 137 255
e 137 259
e 137 298
e 138 149
e 138 239
e 138 240
e 138 257
e 138 258
e 138 298
e 139 149
e 139 243
e 139 245
e 139 260
e 139 298
e 140 149
e 140 242
e 140 244
e 140 260
e 140 298
e 141 149
e 141 243
e 141 247
e 141 260
e 141 298
e 142 149
e 142 242
e 142 246
e 142 260
e 142 298
e 143 149
e 143 245
e 143 249
e 143 260
e 143 298
e 144 149
e 144 244
e 144 248
e 144 260
e 144 298
e 145 149
e 145 247
e 145 250
e 145 260
e 145 298
e 146 149
e 146 246
e 146 250
e 146 260
e 146 298
e 147 149
e 147 248
e 147 249
e 147 260
e 147 298
e 148 149
e 148 251
e 148 252
e 148 253
e 148 254
e 148 255
e 148 256
e 148 257
e 148 258
e 148 259
e 148 298
e 149 261
e 149 262
e 149 263
e 149 264
e 149 265
e 149 266
e 149 267
e 149 268
e 149 269
e 149 270
e 149 271
e 149 272
e 149 273
e 149 274
e 149 275
e 149 276
e 149 277
e 149 278
e 149 279
e 149 280
e 149 281
e 149 282
e 149 283
e 149 284
e 149 285
e 149 286
e 149 287
e 149 288
e 149 289
e 149 290
e 149 291
e 149 292
e 149 293
e 149 294
e 149 295
e 149 296
e 149 297
e 150 300
e 150 302
e 150 309
e 150 311
e 150 337
e 150 339
e 150 346
e 150 348
e 151 299
e 151 301
e 151 308
e 151 310
e 151 336
e 151 338
e 151 345
e 151 347
e 152 300
e 152 304
e 152 309
e 152 313
e 152 337
e 152 341
e 152 346
e 152 350
e 153 299
e 153 303
e 153 308
e 153 312
e 153 336
e 153 340
e 153 345
e 153 349
e 154 302
e 154 306
e 154 311
e 154 315
e 154 339
e 154 343
e 154 348
e 154 352
e 155 301
e 155 305
e 155 310
e 155 314
e 155 338
e 155 342
e 155 347
e 155 351
e 156 304
e 156 307
e 156 313
e 156 316
e 156 341
e 156 344
e 156 350
e 156 353
e 157 303
e 157 307
e 157 312
e 157 316
e 157 340
e 157 344
e 157 349
e 157 353
e 158 305
e 158 306
e 158 314
e 158 315
e 158 342
e 158 343
e 158 351
e 158 352
e 159 300
e 159 302
e 159 318
e 159 320
e 159 337
e 159 339
e 159 355
e 159 357
e 160 299
e 160 301
e 160 317
e 160 319
e 160 336
e 160 338
e 160 354
e 160 356
e 161 300
e 161 304
e 161 318
e 161 322
e 161 337
e 161 341
e 161 355
e 161 359
e 162 299
e 162 303
e 162 317
e 162 321
e 162 336
e 162 340
e 162 354
e 162 358
e 163 302
e 163 306
e 163 320
e 163 324
e 163 339
e 163 343
e 163 357
e 163 361
e 164 301
e 164 305
e 164 319
e 164 323
e 164 338
e 164 342
e 164 356
e 164 360
e 165 304
e 165 307
e 165 322
e 165 325
e 165 341
e 165 344
e 165 359
e 165 362
e 166 303
e 166 307
e 166 321
e 166 325
e 166 340
e 166 344
e 166 358
e 166 362
e 167 305
e 167 306
e 167 323
e 167 324
e 167 342
e 167 343
e 167 360
e 167 361
e 168 309
e 168 311
e 168 327
e 168 329
e 168 346
e 168 348
e 168 364
e 168 366
e 169 308
e 169 310
e 169 326
e 169 328
e 169 345
e 169 347
e 169 363
e 169 365
e 170 309
e 170 313
e 170 327
e 170 331
e 170 346
e 170 350
e 170 364
e 170 368
e 171 308
e 171 312
e 171 326
e 171 330
e 171 345
e 171 349
e 171 363
e 171 367
e 172 311
e 172 315
e 172 329
e 172 333
e 172 348
e 172 352
e 172 366
e 172 370
e 173 310
e 173 314
e 173 328
e 173 332
e 173 347
e 173 351
e 173 365
e 173 369
e 174 313
e 174 316
e 174 331
e 174 334
e 174 350
e 174 353
e 174 368
e 174 371
e 175 312
e 175 316
e 175 330
e 175 334
e 175 349
e 175 353
e 175 367
e 175 371
e 176 314
e 176 315
e 176 332
e 176 333
e 176 351
e 176 352
e 176 369
e 176 370
e 177 318
e 177 320
e 177 335
e 177 355
e 177 357
e 177 372
e 178 317
e 178 319
e 178 335
e 178 354
e 178 356
e 178 372
e 179 318
e 179 322
e 179 335
e 179 355
e 179 359
e 179 372
e 180 317
e 180 321
e 180 335
e 180 354
e 180 358
e 180 372
e 181 320
e 181 324
e 181 335
e 181 357
e 181 361
e 181 372
e 182 319
e 182 323
e 182 335
e 182 356
e 182 360
e 182 372
e 183 322
e 183 325
e 183 335
e 183 359
e 183 362
e 183 372
e 184 321
e 184 325
e 184 335
e 184 358
e 184 362
e 184 372
e 185 323
e 185 324
e 185 335
e 185 360
e 185 361
e 185 372
e 186 326
e 186 327
e 186 328
e 186 329
e 186 330
e 186 331
e 186 332
e 186 333
e 186 334
e 186 363
e 186 364
e 186 365
e 186 366
e 186 367
e 186 368
e 186 369
e 186 370
e 186 371
e 187 300
e 187 302
e 187 309
e 187 311
e 187 374
e 187 376
e 187 383
e 187 385
e 188 299
e 188 301
e 188 308
e 188 310
e 188 373
e 188 375
e 188 382
e 188 384
e 189 300
e 189 304
e 189 309
e 189 313
e 189 374
e 189 378
e 189 383
e 189 387
e 190 299
e 190 303
e 190 308
e 190 312
e 190 373
e 190 377
e 190 382
e 190 386
e 191 302
e 191 306
e 191 311
e 191 315
e 191 376
e 191 380
e 191 385
e 191 389
e 192 301
e 192 305
e 192 310
e 192 314
e 192 375
e 192 379
e 192 384
e 192 388
e 193 304
e 193 307
e 193 313
e 193 316
e 193 378
e 193 381
e 193 387
e 193 390
e 194 303
e 194 307
e 194 312
e 194 316
e 194 377
e 194 381
e 194 386
e 194 390
e 195 305
e 195 306
e 195 314
e 195 315
e 195 379
e 195 380
e 195 388
e 195 389
e 196 300
e 196 302
e 196 318
e 196 320
e 196 374
e 196 376
e 196 392
e 196 394
e 197 299
e 197 301
e 197 317
e 197 319
e 197 373
e 197 375
e 197 391
e 197 393
e 198 300
e 198 304
e 198 318
e 198 322
e 198 374
e 198 378
e 198 392
e 198 396
e 199 299
e 199 303
e 199 317
e 199 321
e 199 373
e 199 377
e 199 391
e 199 395
e 200 302
e 200 306
e 200 320
e 200 324
e 200 376
e 200 380
e 200 394
e 200 398
e 201 301
e 201 305
e 201 319
e 201 323
e 201 375
e 201 379
e 201 393
e 201 397
e 202 304
e 202 307
e 202 322
e 202 325
e 202 378
e 202 381
e 202 396
e 202 399
e 203 303
e 203 307
e 203 321
e 203 325
e 203 377
e 203 381
e 203 395
e 203 399
e 204 305
e 204 306
e 204 323
e 204 324
e 204 379
e 204 380
e 204 397
e 204 398
e 205 309
e 205 311
e 205 327
e 205 329
e 205 383
e 205 385
e 205 401
e 205 403
e 206 308
e 206 310
e 206 326
e 206 328
e 206 382
e 206 384
e 206 400
e 206 402
e 207 309
e 207 313
e 207 327
e 207 331
e 207 383
e 207 387
e 207 401
e 207 405
e 208 308
e 208 312
e 208 326
e 208 330
e 208 382
e 208 386
e 208 400
e 208 404
e 209 311
e 209 315
e 209 329
e 209 333
e 209 385
e 209 389
e 209 403
e 209 407
e 210 310
e 210 314
e 210 328
e 210 332
e 210 384
e 210 388
e 210 402
e 210 406
e 211 313
e 211 316
e 211 331
e 211 334
e 211 387
e 211 390
e 211 405
e 211 408
e 212 312
e 212 316
e 212 330
e 212 334
e 212 386
e 212 390
e 212 404
e 212 408
e 213 314
e 213 315
e 213 332
e 213 333
e 213 388
e 213 389
e 213 406
e 213 407
e 214 318
e 214 320
e 214 335
e 214 392
e 214 394
e 214 409
e 215 317
e 215 319
e 215 335
e 215 391
e 215 393
e 215 409
e 216 318
e 216 322
e 216 335
e 216 392
e 216 396
e 216 409
e 217 317
e 217 321
e 217 335
e 217 391
e 217 395
e 217 409
e 218 320
e 218 324
e 218 335
e 218 394
e 218 398
e 218 409
e 219 319
e 219 323
e 219 335
e 219 393
e 219 397
e 219 409
e 220 322
e 220 325
e 220 335
e 220 396
e 220 399
e 220 409
e 221 321
e 221 325
e 221 335
e 221 395
e 221 399
e 221 409
e 222 323
e 222 324
e 222 335
e 222 397
e 222 398
e 222 409
e 223 326
e 223 327
e 223 328
e 223 329
e 223 330
e 223 331
e 223 332
e 223 333
e 223 334
e 223 400
e 223 401
e 223 402
e 223 403
e 223 404
e 223 405
e 223 406
e 223 407
e 223 408
e 224 337
e 224 339
e 224 346
e 224 348
e 224 411
e 224 413
e 224 420
e 224 422
e 225 336
e 225 338
e 225 345
e 225 347
e 225 410
e 225 412
e 225 419
e 225 421
e 226 337
e 226 341
e 226 346
e 226 350
e 226 411
e 226 415
e 226 420
e 226 424
e 227 336
e 227 340
e 227 345
e 227 349
e 227 410
e 227 414
e 227 419
e 227 423
e 228 339
e 228 343
e 228 348
e 228 352
e 228 413
e 228 417
e 228 422
e 228 426
e 229 338
e 229 342
e 229 347
e 229 351
e 229 412
e 229 416
e 229 421
e 229 425
e 230 341
e 230 344
e 230 350
e 230 353
e 230 415
e 230 418
e 230 424
e 230 427
e 231 340
e 231 344
e 231 349
e 231 353
e 231 414
e 231 418
e 231 423
e 231 427
e 232 342
e 232 343
e 232 351
e 232 352
e 232 416
e 232 417
e 232 425
e 232 426
e 233 337
e 233 339
e 233 355
e 233 357
e 233 411
e 233 413
e 233 429
e 233 431
e 234 336
e 234 338
e 234 354
e 234 356
e 234 410
e 234 412
e 234 428
e 234 430
e 235 337
e 235 341
e 235 355
e 235 359
e 235 411
e 235 415
e 235 429
e 235 433
e 236 336
e 236 340
e 236 354
e 236 358
e 236 410
e 236 414
e 236 428
e 236 432
e 237 339
e 237 343
e 237 357
e 237 361
e 237 413
e 237 417
e 237 431
e 237 435
e 238 338
e 238 342
e 238 356
e 238 360
e 238 412
e 238 416
e 238 430
e 238 434
e 239 341
e 239 344
e 239 359
e 239 362
e 239 415
e 239 418
e 239 433
e 239 436
e 240 340
e 240 344
e 240 358
e 240 362
e 240 414
e 240 418
e 240 432
e 240 436
e 241 342
e 241 343
e 241 360
e 241 361
e 241 416
e 241 417
e 241 434
e 241 435
e 242 346
e 242 348
e 242 364
e 242 366
e 242 420
e 242 422
e 242 438
e 242 440
e 243 345
e 243 347
e 243 363
e 243 365
e 243 419
e 243 421
e 243 437
e 243 439
e 244 346
e 244 350
e 244 364
e 244 368
e 244 420
e 244 424
e 244 438
e 244 442
e 245 345
e 245 349
e 245 363
e 245 367
e 245 419
e 245 423
e 245 437
e 245 441
e 246 348
e 246 352
e 246 366
e 246 370
e 246 422
e 246 426
e 246 440
e 246 444
e 247 347
e 247 351
e 247 365
e 247 369
e 247 421
e 247 425
e 247 439
e 247 443
e 248 350
e 248 353
e 248 368
e 248 371
e 248 424
e 248 427
e 248 442
e 248 445
e 249 349
e 249 353
e 249 367
e 249 371
e 249 423
e 249 427
e 249 441
e 249 445
e 250 351
e 250 352
e 250 369
e 250 370
e 250 425
e 250 426
e 250 443
e 250 444
e 251 355
e 251 357
e 251 372
e 251 429
e 251 431
e 251 446
e 252 354
e 252 356
e 252 372
e 252 428
e 252 430
e 252 446
e 253 355
e 253 359
e 253 372
e 253 429
e 253 433
e 253 446
e 254 354
e 254 358
e 254 372
e 254 428
e 254 432
e 254 446
e 255 357
e 255 361
e 255 372
e 255 431
e 255 435
e 255 446
e 256 356
e 256 360
e 256 372
e 256 430
e 256 434
e 256 446
e 257 359
e 257 362
e 257 372
e 257 433
e 257 436
e 257 446
e 258 358
e 258 362
e 258 372
e 258 432
e 258 436
e 258 446
e 259 360
e 259 361
e 259 372
e 259 434
e 259 435
e 259 446
e 260 363
e 260 364
e 260 365
e 260 366
e 260 367
e 260 368
e 260 369
e 260 370
e 260 371
e 260 437
e 260 438
e 260 439
e 260 440
e 260 441
e 260 442
e 260 443
e 260 444
e 260 445
e 261 374
e 261 376
e 261 383
e 261 385
e 261 447
e 262 373
e 262 375
e 262 382
e 262 384
e 262 447
e 263 374
e 263 378
e 263 383
e 263 387
e 263 447
e 264 373
e 264 377
e 264 382
e 264 386
e 264 447
e 265 376
e 265 380
e 265 385
e 265 389
e 265 447
e 266 375
e 266 379
e 266 384
e 266 388
e 266 447
e 267 378
e 267 381
e 267 387
e 267 390
e 267 447
e 268 377
e 268 381
e 268 386
e 268 390
e 268 447
e 269 379
e 269 380
e 269 388
e 269 389
e 269 447
e 270 374
e 270 376
e 270 392
e 270 394
e 270 447
e 271 373
e 271 375
e 271 391
e 271 393
e 271 447
e 272 374
e 272 378
e 272 392
e 272 396
e 272 447
e 273 373
e 273 377
e 273 391
e 273 395
e 273 447
e 274 376
e 274 380
e 274 394
e 274 398
e 274 447
e 275 375
e 275 379
e 275 393
e 275 397
e 275 447
e 276 378
e 276 381
e 276 396
e 276 399
e 276 447
e 277 377
e 277 381
e 277 395
e 277 399
e 277 447
e 278 379
e 278 380
e 278 397
e 278 398
e 278 447
e 279 383
e 279 385
e 279 401
e 279 403
e 279 447
e 280 382
e 280 384
e 280 400
e 280 402
e 280 447
e 281 383
e 281 387
e 281 401
e 281 405
e 281 447
e 282 382
e 282 386
e 282 400
e 282 404
e 282 447
e 283 385
e 283 389
e 283 403
e 283 407
e 283 447
e 284 384
e 284 388
e 284 402
e 284 406
e 284 447
e 285 387
e 285 390
e 285 405
e 285 408
e 285 447
e 286 386
e 286 390
e 286 404
e 286 408
e 286 447
e 287 388
e 287 389
e 287 406
e 287 407
e 287 447
e 288 392
e 288 394
e 288 409
e 288 447
e 289 391
e 289 393
e 289 409
e 289 447
e 290 392
e 290 396
e 290 409
e 290 447
e 291 391
e 291 395
e 291 409
e 291 447
e 292 394
e 292 398
e 292 409
e 292 447
e 293 393
e 293 397
e 293 409
e 293 447
e 294 396
e 294 399
e 294 409
e 294 447
e 295 395
e 295 399
e 295 409
e 295 447
e 296 397
e 296 398
e 296 409
e 296 447
e 297 400
e 297 401
e 297 402
e 297 403
e 297 404
e 297 405
e 297 406
e 297 407
e 297 408
e 297 447
e 298 410
e 298 411
e 298 412
e 298 413
e 298 414
e 298 415
e 298 416
e 298 417
e 298 418
e 298 419
e 298 420
e 298 421
e 298 422
e 298 423
e 298 424
e 298 425
e 298 426
e 298 427
e 298 428
e 298 429
e 298 430
e 298 431
e 298 432
e 298 433
e 298 434
e 298 435
e 298 436
e 298 437
e 298 438
e 298 439
e 298 440
e 298 441
e 298 442
e 298 443
e 298 444
e 298 445
e 298 446
e 299 449
e 299 451
e 299 458
e 299 460
e 299 486
e 299 488
e 299 495
e 299 497
e 300 448
e 300 450
e 300 457
e 300 459
e 300 485
e 300 487
e 300 494
e 300 496
e 301 449
e 301 453
e 301 458
e 301 462
e 301 486
e 301 490
e 301 495
e 301 499
e 302 448
e 302 452
e 302 457
e 302 461
e 302 485
e 302 489
e 302 494
e 302 498
e 303 451
e 303 455
e 303 460
e 303 464
e 303 488
e 303 492
e 303 497
e 303 501
e 304 450
e 304 454
e 304 459
e 304 463
e 304 487
e 304 491
e 304 496
e 304 500
e 305 453
e 305 456
e 305 462
e 305 465
e 305 490
e 305 493
e 305 499
e 305 502
e 306 452
e 306 456
e 306 461
e 306 465
e 306 489
e 306 493
e 306 498
e 306 502
e 307 454
e 307 455
e 307 463
e 307 464
e 307 491
e 307 492
e 307 500
e 307 501
e 308 449
e 308 451
e 308 467
e 308 469
e 308 486
e 308 488
e 308 504
e 308 506
e 309 448
e 309 450
e 309 466
e 309 468
e 309 485
e 309 487
e 309 503
e 309 505
e 310 449
e 310 453
e 310 467
e 310 471
e 310 486
e 310 490
e 310 504
e 310 508
e 311 448
e 311 452
e 311 466
e 311 470
e 311 485
e 311 489
e 311 503
e 311 507
e 312 451
e 312 455
e 312 469
e 312 473
e 312 488
e 312 492
e 312 506
e 312 510
e 313 450
e 313 454
e 313 468
e 313 472
e 313 487
e 313 491
e 313 505
e 313 509
e 314 453
e 314 456
e 314 471
e 314 474
e 314 490
e 314 493
e 314 508
e 314 511
e 315 452
e 315 456
e 315 470
e 315 474
e 315 489
e 315 493
e 315 507
e 315 511
e 316 454
e 316 455
e 316 472
e 316 473
e 316 491
e 316 492
e 316 509
e 316 510
e 317 458
e 317 460
e 317 476
e 317 478
e 317 495
e 317 497
e 317 513
e 317 515
e 318 457
e 318 459
e 318 475
e 318 477
e 318 494
e 318 496
e 318 512
e 318 514
e 319 458
e 319 462
e 319 476
e 319 480
e 319 495
e 319 499
e 319 513
e 319 517
e 320 457
e 320 461
e 320 475
e 320 479
e 320 494
e 320 498
e 320 512
e 320 516
e 321 460
e 321 464
e 321 478
e 321 482
e 321 497
e 321 501
e 321 515
e 321 519
e 322 459
e 322 463
e 322 477
e 322 481
e 322 496
e 322 500
e 322 514
e 322 518
e 323 462
e 323 465
e 323 480
e 323 483
e 323 499
e 323 502
e 323 517
e 323 520
e 324 461
e 324 465
e 324 479
e 324 483
e 324 498
e 324 502
e 324 516
e 324 520
e 325 463
e 325 464
e 325 481
e 325 482
e 325 500
e 325 501
e 325 518
e 325 519
e 326 467
e 326 469
e 326 484
e 326 504
e 326 506
e 326 521
e 327 466
e 327 468
e 327 484
e 327 503
e 327 505
e 327 521
e 328 467
e 328 471
e 328 484
e 328 504
e 328 508
e 328 521
e 329 466
e 329 470
e 329 484
e 329 503
e 329 507
e 329 521
e 330 469
e 330 473
e 330 484
e 330 506
e 330 510
e 330 521
e 331 468
e 331 472
e 331 484
e 331 505
e 331 509
e 331 521
e 332 471
e 332 474
e 332 484
e 332 508
e 332 511
e 332 521
e 333 470
e 333 474
e 333 484
e 333 507
e 333 511
e 333 521
e 334 472
e 334 473
e 334 484
e 334 509
e 334 510
e 334 521
e 335 475
e 335 476
e 335 477
e 335 478
e 335 479
e 335 480
e 335 481
e 335 482
e 335 483
e 335 512
e 335 513
e 335 514
e 335 515
e 335 516
e 335 517
e 335 518
e 335 519
e 335 520
e 336 449
e 336 451
e 336 458
e 336 460
e 336 523
e 336 525
e 336 532
e 336 534
e 337 448
e 337 450
e 337 457
e 337 459
e 337 522
e 337 524
e 337 531
e 337 533
e 338 449
e 338 453
e 338 458
e 338 462
e 338 523
e 338 527
e 338 532
e 338 536
e 339 448
e 339 452
e 339 457
e 339 461
e 339 522
e 339 526
e 339 531
e 339 535
e 340 451
e 340 455
e 340 460
e 340 464
e 340 525
e 340 529
e 340 534
e 340 538
e 341 450
e 341 454
e 341 459
e 341 463
e 341 524
e 341 528
e 341 533
e 341 537
e 342 453
e 342 456
e 342 462
e 342 465
e 342 527
e 342 530
e 342 536
e 342 539
e 343 452
e 343 456
e 343 461
e 343 465
e 343 526
e 343 530
e 343 535
e 343 539
e 344 454
e 344 455
e 344 463
e 344 464
e 344 528
e 344 529
e 344 537
e 344 538
e 345 449
e 345 451
e 345 467
e 345 469
e 345 523
e 345 525
e 345 541
e 345 543
e 346 448
e 346 450
e 346 466
e 346 468
e 346 522
e 346 524
e 346 540
e 346 542
e 347 449
e 347 453
e 347 467
e 347 471
e 347 523
e 347 527
e 347 541
e 347 545
e 348 448
e 348 452
e 348 466
e 348 470
e 348 522
e 348 526
e 348 540
e 348 544
e 349 451
e 349 455
e 349 469
e 349 473
e 349 525
e 349 529
e 349 543
e 349 547
e 350 450
e 350 454
e 350 468
e 350 472
e 350 524
e 350 528
e 350 542
e 350 546
e 351 453
e 351 456
e 351 471
e 351 474
e 351 527
e 351 530
e 351 545
e 351 548
e 352 452
e 352 456
e 352 470
e 352 474
e 352 526
e 352 530
e 352 544
e 352 548
e 353 454
e 353 455
e 353 472
e 353 473
e 353 528
e 353 529
e 353 546
e 353 547
e 354 458
e 354 460
e 354 476
e 354 478
e 354 532
e 354 534
e 354 550
e 354 552
e 355 457
e 355 459
e 355 475
e 355 477
e 355 531
e 355 533
e 355 549
e 355 551
e 356 458
e 356 462
e 356 476
e 356 480
e 356 532
e 356 536
e 356 550
e 356 554
e 357 457
e 357 461
e 357 475
e 357 479
e 357 531
e 357 535
e 357 549
e 357 553
e 358 460
e 358 464
e 358 478
e 358 482
e 358 534
e 358 538
e 358 552
e 358 556
e 359 459
e 359 463
e 359 477
e 359 481
e 359 533
e 359 537
e 359 551
e 359 555
e 360 462
e 360 465
e 360 480
e 360 483
e 360 536
e 360 539
e 360 554
e 360 557
e 361 461
e 361 465
e 361 479
e 361 483
e 361 535
e 361 539
e 361 553
e 361 557
e 362 463
e 362 464
e 362 481
e 362 482
e 362 537
e 362 538
e 362 555
e 362 556
e 363 467
e 363 469
e 363 484
e 363 541
e 363 543
e 363 558
e 364 466
e 364 468
e 364 484
e 364 540
e 364 542
e 364 558
e 365 467
e 365 471
e 365 484
e 365 541
e 365 545
e 365 558
e 366 466
e 366 470
e 366 484
e 366 540
e 366 544
e 366 558
e 367 469
e 367 473
e 367 484
e 367 543
e 367 547
e 367 558
e 368 468
e 368 472
e 368 484
e 368 542
e 368 546
e 368 558
e 369 471
e 369 474
e 369 484
e 369 545
e 369 548
e 369 558
e 370 470
e 370 474
e 370 484
e 370 544
e 370 548
e 370 558
e 371 472
e 371 473
e 371 484
e 371 546
e 371 547
e 371 558
e 372 475
e 372 476
e 372 477
e 372 478
e 372 479
e 372 480
e 372 481
e 372 482
e 372 483
e 372 549
e 372 550
e 372 551
e 372 552
e 372 553
e 372 554
e 372 555
e 372 556
e 372 557
e 373 486
e 373 488
e 373 495
e 373 497
e 373 560
e 373 562
e 373 569
e 373 571
e 374 485
e 374 487
e 374 494
e 374 496
e 374 559
e 374 561
e 374 568
e 374 570
e 375 486
e 375 490
e 375 495
e 375 499
e 375 560
e 375 564
e 375 569
e 375 573
e 376 485
e 376 489
e 376 494
e 376 498
e 376 559
e 376 563
e 376 568
e 376 572
e 377 488
e 377 492
e 377 497
e 377 501
e 377 562
e 377 566
e 377 571
e 377 575
e 378 487
e 378 491
e 378 496
e 378 500
e 378 561
e 378 565
e 378 570
e 378 574
e 379 490
e 379 493
e 379 499
e 379 502
e 379 564
e 379 567
e 379 573
e 379 576
e 380 489
e 380 493
e 380 498
e 380 502
e 380 563
e 380 567
e 380 572
e 380 576
e 381 491
e 381 492
e 381 500
e 381 501
e 381 565
e 381 566
e 381 574
e 381 575
e 382 486
e 382 488
e 382 504
e 382 506
e 382 560
e 382 562
e 382 578
e 382 580
e 383 485
e 383 487
e 383 503
e 383 505
e 383 559
e 383 561
e 383 577
e 383 579
e 384 486
e 384 490
e 384 504
e 384 508
e 384 560
e 384 564
e 384 578
e 384 582
e 385 485
e 385 489
e 385 503
e 385 507
e 385 559
e 385 563
e 385 577
e 385 581
e 386 488
e 386 492
e 386 506
e 386 510
e 386 562
e 386 566
e 386 580
e 386 584
e 387 487
e 387 491
e 387 505
e 387 509
e 387 561
e 387 565
e 387 579
e 387 583
e 388 490
e 388 493
e 388 508
e 388 511
e 388 564
e 388 567
e 388 582
e 388 585
e 389 489
e 389 493
e 389 507
e 389 511
e 389 563
e 389 567
e 389 581
e 389 585
e 390 491
e 390 492
e 390 509
e 390 510
e 390 565
e 390 566
e 390 583
e 390 584
e 391 495
e 391 497
e 391 513
e 391 515
e 391 569
e 391 571
e 391 587
e 391 589
e 392 494
e 392 496
e 392 512
e 392 514
e 392 568
e 392 570
e 392 586
e 392 588
e 393 495
e 393 499
e 393 513
e 393 517
e 393 569
e 393 573
e 393 587
e 393 591
e 394 494
e 394 498
e 394 512
e 394 516
e 394 568
e 394 572
e 394 586
e 394 590
e 395 497
e 395 501
e 395 515
e 395 519
e 395 571
e 395 575
e 395 589
e 395 593
e 396 496
e 396 500
e 396 514
e 396 518
e 396 570
e 396 574
e 396 588
e 396 592
e 397 499
e 397 502
e 397 517
e 397 520
e 397 573
e 397 576
e 397 591
e 397 594
e 398 498
e 398 502
e 398 516
e 398 520
e 398 572
e 398 576
e 398 590
e 398 594
e 399 500
e 399 501
e 399 518
e 399 519
e 399 574
e 399 575
e 399 592
e 399 593
e 400 504
e 400 506
e 400 521
e 400 578
e 400 580
e 400 595
e 401 503
e 401 505
e 401 521
e 401 577
e 401 579
e 401 595
e 402 504
e 402 508
e 402 521
e 402 578
e 402 582
e 402 595
e 403 503
e 403 507
e 403 521
e 403 577
e 403 581
e 403 595
e 404 506
e 404 510
e 404 521
e 404 580
e 404 584
e 404 595
e 405 505
e 405 509
e 405 521
e 405 579
e 405 583
e 405 595
e 406 508
e 406 511
e 406 521
e 406 582
e 406 585
e 406 595
e 407 507
e 407 511
e 407 521
e 407 581
e 407 585
e 407 595
e 408 509
e 408 510
e 408 521
e 408 583
e 408 584
e 408 595
e 409 512
e 409 513
e 409 514
e 409 515
e 409 516
e 409 517
e 409 518
e 409 519
e 409 520
e 409 586
e 409 587
e 409 588
e 409 589
e 409 590
e 409 591
e 409 592
e 409 593
e 409 594
e 410 523
e 410 525
e 410 532
e 410 534
e 410 596
e 411 522
e 411 524
e 411 531
e 411 533
e 411 596
e 412 523
e 412 527
e 412 532
e 412 536
e 412 596
e 413 522
e 413 526
e 413 531
e 413 535
e 413 596
e 414 525
e 414 529
e 414 534
e 414 538
e 414 596
e 415 524
e 415 528
e 415 533
e 415 537
e 415 596
e 416 527
e 416 530
e 416 536
e 416 539
e 416 596
e 417 526
e 417 530
e 417 535
e 417 539
e 417 596
e 418 528
e 418 529
e 418 537
e 418 538
e 418 596
e 419 523
e 419 525
e 419 541
e 419 543
e 419 596
e 420 522
e 420 524
e 420 540
e 420 542
e 420 596
e 421 523
e 421 527
e 421 541
e 421 545
e 421 596
e 422 522
e 422 526
e 422 540
e 422 544
e 422 596
e 423 525
e 423 529
e 423 543
e 423 547
e 423 596
e 424 524
e 424 528
e 424 542
e 424 546
e 424 596
e 425 527
e 425 530
e 425 545
e 425 548
e 425 596
e 426 526
e 426 530
e 426 544
e 426 548
e 426 596
e 427 528
e 427 529
e 427 546
e 427 547
e 427 596
e 428 532
e 428 534
e 428 550
e 428 552
e 428 596
e 429 531
e 429 533
e 429 549
e 429 551
e 429 596
e 430 532
e 430 536
e 430 550
e 430 554
e 430 596
e 431 531
e 431 535
e 431 549
e 431 553
e 431 596
e 432 534
e 432 538
e 432 552
e 432 556
e 432 596
e 433 533
e 433 537
e 433 551
e 433 555
e 433 596
e 434 536
e 434 539
e 434 554
e 434 557
e 434 596
e 435 535
e 435 539
e 435 553
e 435 557
e 435 596
e 436 537
e 436 538
e 436 555
e 436 556
e 436 596
e 437 541
e 437 543
e 437 558
e 437 596
e 438 540
e 438 542
e 438 558
e 438 596
e 439 541
e 439 545
e 439 558
e 439 596
e 440 540
e 440 544
e 440 558
e 440 596
e 441 543
e 441 547
e 441 558
e 441 596
e 442 542
e 442 546
e 442 558
e 442 596
e 443 545
e 443 548
e 443 558
e 443 596
e 444 544
e 444 548
e 444 558
e 444 596
e 445 546
e 445 547
e 445 558
e 445 596
e 446 549
e 446 550
e 446 551
e 446 552
e 446 553
e 446 554
e 446 555
e 446 556
e 446 557
e 446 596
e 447 559
e 447 560
e 447 561
e 447 562
e 447 563
e 447 564
e 447 565
e 447 566
e 447 567
e 447 568
e 447 569
e 447 570
e 447 571
e 447 572
e 447 573
e 447 574
e 447 575
e 447 576
e 447 577
e 447 578
e 447 579
e 447 580
e 447 581
e 447 582
e 447 583
e 447 584
e 447 585
e 447 586
e 447 587
e 447 588
e 447 589
e 447 590
e 447 591
e 447 592
e 447 593
e 447 594
e 447 595
e 448 597
e 449 597
e 450 597
e 451 597
e 452 597
e 453 597
e 454 597
e 455 597
e 456 597
e 457 597
e 458 597
e 459 597
e 460 597
e 461 597
e 462 597
e 463 597
e 464 597
e 465 597
e 466 597
e 467 597
e 468 597
e 469 597
e 470 597
e 471 597
e 472 597
e 473 597
e 474 597
e 475 597
e 476 597
e 477 597
e 478 597
e 479 597
e 480 597
e 481 597
e 482 597
e 483 597
e 484 597
e 485 597
e 486 597
e 487 597
e 488 597
e 489 597
e 490 597
e 491 597
e 492 597
e 493 597
e 494 597
e 495 597
e 496 597
e 497 597
e 498 597
e 499 597
e 500 597
e 501 597
e 502 597
e 503 597
e 504 597
e 505 597
e 506 597
e 507 597
e 508 597
e 509 597
e 510 597
e 511 597
e 512 597
e 513 597
e 514 597
e 515 597
e 516 597
e 517 597
e 518 597
e 519 597
e 520 597
e 521 597
e 522 597
e 523 597
e 524 597
e 525 597
e 526 597
e 527 597
e 528 597
e 529 597
e 530 597
e 531 597
e 532 597
e 533 597
e 534 597
e 535 597
e 536 597
e 537 597
e 538 597
e 539 597
e 540 597
e 541 597
e 542 597
e 543 597
e 544 597
e 545 597
e 546 597
e 547 597
e 548 597
e 549 597
e 550 597
e 551 597
e 552 597
e 553 597
e 554 597
e 555 597
e 556 597
e 557 597
e 558 597
e 559 597
e 560 597
e 561 597
e 562 597
e 563 597
e 564 597
e 565 597
e 566 597
e 567 597
e 568 597
e 569 597
e 570 597
e 571 597
e 572 597
e 573 597
e 574 597
e 575 597
e 576 597
e 577 597
e 578 597
e 579 597
e 580 597
e 581 597
e 582 597
e 583 597
e 584 597
e 585 597
e 586 597
e 587 597
e 588 597
e 589 597
e 590 597
e 591 597
e 592 597
e 593 597
e 594 597
e 595 597
e 596 597
